\ Model Iterative stochastic offering strategy_copy
\ LP format - for model browsing. Use MPS format to capture full model detail.
Maximize
 
Subject To
 Balancing_power_constraint_18_1: Balancing_discharge_18_1
   - Balancing_charge_18_1 - Balancing_power_18_1 = 19.30161410315428
 SOC_time_constraint_18_1: - State_of_charge_18_1
   - 1.111111111111111 Balancing_discharge_18_1 + 0.9 Balancing_charge_18_1
   = 0
Bounds
 Balancing_discharge_18_1 free
End
